variable  newton_pair     index  on
variable  newton_bond     index  on
variable  units           index  metal
variable  input_dir       index  .
variable  data_file       index ${input_dir}/data.mtp
variable  pair_style      index 'zero 8.0'

atom_style       atomic
units metal
newton           ${newton_pair} ${newton_bond}

pair_style       ${pair_style}
read_data        ${data_file}
